Minimize

10.0 x_0 + 3.0 x_1 + 1.5 x_2 + 5.0 x_3


Subject To

a0: 1 x_0 + 1 x_1 + 0 x_2 + 0 x_3 >= 1
a1: 1 x_0 + 0 x_1 + 0 x_2 + 0 x_3 >= 1
a2: 1 x_0 + 0 x_1 + 0 x_2 + 0 x_3 >= 1
a3: 1 x_0 + 1 x_1 + 0 x_2 + 0 x_3 >= 1
a4: 0 x_0 + 0 x_1 + 1 x_2 + 1 x_3 >= 1
b0: y_0 + y_1 <= 1
c0: 1 x_0 - y_0 <= 0
c1: 0 x_0 - y_1 <= 0
c2: 1 x_1 - y_0 <= 0
c3: 0 x_1 - y_1 <= 0
c4: 0 x_2 - y_0 <= 0
c5: 1 x_2 - y_1 <= 0
c6: 1 x_3 - y_0 <= 0
c7: 0 x_3 - y_1 <= 0




Binary

y_0 y_1 x_0 x_1 x_2 x_3

 


End
